NAME : kroD100-C-5-3-a.21744.tour
COMMENT : Length = 21744
COMMENT : Found by LKH-3 [Keld Helsgaun] Tue Jul 30 13:14:12 2024
TYPE : TOUR
DIMENSION : 100
TOUR_SECTION
1
13
79
88
27
24
41
84
69
15
73
39
91
54
63
16
64
77
43
71
4
93
44
60
53
62
37
19
51
35
30
100
2
48
92
5
3
83
40
6
59
85
18
25
20
10
9
55
87
26
95
56
21
28
12
47
82
96
86
65
14
68
33
45
99
78
31
57
72
80
76
61
74
7
75
67
36
29
58
22
70
49
98
97
32
94
17
90
11
89
42
23
46
52
8
66
38
81
34
50
-1
EOF
